NAME : OMNETRUN
COMMENT : 524.61
TYPE : CVRP
DIMENSION : 21
EDGE_WEIGHT_TYPE : EUC_2D
CAPACITY : 21
NODE_COORD_SECTION
1 0.107093 -0.77924
2 97.2211 -1810.1
3 152.686 -2894.06
4 235.553 -3241.73
5 194.393 -3695.36
6 208.755 -5173.99
7 461.277 -2115.16
8 382.477 -4438.32
9 369.397 -5622.05
10 560.719 -1403.05
11 671.928 -2486.39
12 647.126 -3236.75
13 537.124 -3995.91
14 522.012 -4763.57
15 778.27 -589.452
16 931.668 -1916.87
17 786.35 -2848.85
18 947.829 -4034.59
19 882.118 -4432.09
20 867.502 -5118.6
21 972.105 -5790.99
DEMAND_SECTION
1 0
2 1
3 1
4 1
5 1
6 1
7 1
8 1
9 1
10 1
11 1
12 1
13 1
14 1
15 1
16 1
17 1
18 1
19 1
20 1
21 1
DEPOT_SECTION
1
-1
EOF
